NAME: rue_15_7
TYPE: TSP
DIMENSION: 15
EDGE_WEIGHT_TYPE: EUC_2D
NODE_COORD_SECTION
1 79 2
2 87 17
3 25 80
4 61 42
5 60 78
6 1 91
7 53 57
8 86 22
9 85 48
10 73 61
11 97 99
12 24 16
13 53 11
14 98 64
15 85 12
